100
150
100
100
98
98
96
95
95
93
93
93
92
92
91
91
91
90
90
89
87
87
85
85
84
84
82
82
81
80
78
78
75
74
72
72
71
70
69
68
67
66
65
65
65
65
64
63
63
63
61
61
61
61
61
61
60
60
59
58
57
57
57
56
54
54
53
53
53
52
49
48
47
47
47
45
43
43
42
40
40
40
40
38
36
36
34
32
32
29
28
27
27
27
25
23
23
23
22
22
22
21
